; Insertion sort
(declare-datatypes (a)
  ((list :source |Prelude.[]| (nil :source |Prelude.[]|)
     (cons :source |Prelude.:| (head a) (tail (list a))))))
(define-fun-rec
  insert :source Sort.insert
    ((x Int) (y (list Int))) (list Int)
    (match y
      (case nil (cons x (_ nil Int)))
      (case (cons z xs)
        (ite (<= x z) (cons x y) (cons z (insert x xs))))))
(define-fun-rec
  isort :source Sort.isort
    ((x (list Int))) (list Int)
    (match x
      (case nil (_ nil Int))
      (case (cons y xs) (insert y (isort xs)))))
(define-fun-rec
  (par (a)
    (count :source SortUtils.count
       ((x a) (y (list a))) Int
       (match y
         (case nil 0)
         (case (cons z ys)
           (ite (= x z) (+ 1 (count x ys)) (count x ys)))))))
(prove
  :source Sort.prop_ISortCount
  (forall ((x Int) (xs (list Int)))
    (= (count x (isort xs)) (count x xs))))
